p edge 40 190 10
v 6 5 19 20 21 30 35
v 6 1 17 22 29 34 38
v 3 4 11 12
v 2 16 26
v 3 8 24 25
v 6 6 9 14 15 23 36
v 5 2 3 10 18 28
v 3 31 33 37
v 2 27 39
v 4 7 13 32 40
e 1 4
e 1 10
e 1 14
e 1 15
e 1 18
e 1 31
e 1 32
e 1 40
e 2 16
e 2 20
e 2 21
e 2 22
e 2 23
e 2 24
e 2 37
e 2 38
e 2 39
e 2 40
e 3 4
e 3 11
e 3 13
e 3 18
e 3 19
e 3 21
e 3 22
e 3 27
e 3 28
e 3 29
e 3 35
e 3 36
e 4 8
e 4 13
e 4 15
e 4 16
e 4 17
e 4 23
e 4 29
e 4 32
e 4 36
e 5 11
e 5 20
e 5 24
e 5 27
e 5 28
e 5 32
e 5 34
e 6 7
e 6 9
e 6 11
e 6 12
e 6 16
e 6 20
e 6 27
e 6 29
e 6 32
e 7 14
e 7 16
e 7 22
e 7 25
e 7 38
e 7 40
e 8 14
e 8 23
e 8 26
e 8 27
e 8 32
e 8 35
e 9 18
e 9 22
e 9 28
e 9 37
e 10 28
e 10 30
e 10 31
e 11 13
e 11 14
e 11 18
e 11 23
e 11 25
e 11 30
e 11 39
e 12 15
e 12 21
e 12 24
e 12 26
e 12 32
e 12 33
e 12 39
e 12 40
e 13 19
e 13 24
e 13 27
e 13 29
e 13 31
e 13 33
e 14 15
e 14 19
e 14 23
e 14 25
e 14 27
e 14 31
e 14 33
e 14 39
e 14 40
e 15 19
e 15 24
e 15 28
e 15 29
e 15 31
e 15 32
e 15 34
e 15 35
e 15 38
e 15 39
e 16 18
e 16 20
e 16 25
e 16 37
e 16 39
e 17 18
e 17 21
e 17 22
e 17 25
e 17 27
e 17 28
e 17 32
e 17 34
e 17 38
e 17 40
e 18 26
e 18 31
e 18 38
e 19 21
e 19 22
e 19 23
e 19 31
e 19 33
e 19 34
e 19 36
e 20 21
e 20 23
e 20 27
e 20 31
e 20 35
e 21 24
e 21 25
e 21 27
e 21 28
e 21 32
e 21 33
e 21 34
e 22 27
e 22 29
e 22 35
e 22 38
e 22 40
e 23 25
e 23 27
e 24 31
e 24 34
e 24 37
e 24 38
e 24 39
e 25 26
e 25 27
e 25 31
e 25 32
e 25 35
e 25 38
e 26 30
e 26 32
e 26 38
e 27 31
e 27 35
e 28 32
e 28 35
e 29 40
e 30 31
e 30 33
e 30 37
e 31 33
e 32 36
e 33 34
e 33 40
e 34 37
e 35 36
e 35 38
e 36 39
e 37 39
e 37 40
